DIMACS2
40 104 217 132 167 191 276 37 292 3 235 142 140 61 189 174 50 116 236 66 283 20 111 163 152 162 84 7 74 231 145 24 4 28 182 150 206 278 296 261 248
p edge 320 2503
e 0 297 1.0
e 0 245 1.0
e 0 286 1.0
e 0 231 30.0
e 0 268 1.0
e 0 190 1.0
e 0 272 1.0
e 1 237 1.0
e 1 191 36.0
e 1 318 1.0
e 1 162 5.0
e 1 287 1.0
e 1 302 2.0
e 1 265 1.0
e 2 218 1.0
e 2 114 1.0
e 2 191 40.0
e 2 106 1.0
e 2 212 1.0
e 2 33 2.0
e 2 107 1.0
e 2 288 2.0
e 3 279 5.0
e 3 183 25.0
e 3 291 3.0
e 3 203 17.0
e 3 235 11.0
e 3 5 44.0
e 3 68 35.0
e 3 162 46.0
e 4 216 21.0
e 4 84 35.0
e 4 90 32.0
e 4 271 17.0
e 4 204 17.0
e 4 29 29.0
e 4 291 41.0
e 5 42 2.0
e 5 108 1.0
e 5 318 1.0
e 5 107 1.0
e 5 240 1.0
e 5 199 1.0
e 5 24 47.0
e 5 225 1.0
e 6 139 1.0
e 6 170 1.0
e 6 148 1.0
e 6 295 1.0
e 6 118 1.0
e 6 229 1.0
e 6 164 1.0
e 6 32 1.0
e 7 207 49.0
e 7 278 24.0
e 7 38 24.0
e 7 225 16.0
e 7 163 34.0
e 7 185 6.0
e 7 266 34.0
e 7 114 12.0
e 8 97 1.0
e 8 54 1.0
e 8 110 3.0
e 8 106 1.0
e 8 187 1.0
e 8 66 31.0
e 8 60 2.0
e 8 158 1.0
e 9 213 1.0
e 9 266 1.0
e 9 182 2.0
e 9 294 1.0
e 9 314 1.0
e 9 10 2.0
e 10 56 1.0
e 10 166 1.0
e 10 121 1.0
e 10 184 1.0
e 10 305 1.0
e 10 263 1.0
e 10 208 1.0
e 10 66 13.0
e 11 112 1.0
e 11 311 2.0
e 11 76 2.0
e 11 294 1.0
e 11 7 46.0
e 11 300 2.0
e 11 36 1.0
e 11 236 20.0
e 12 302 2.0
e 12 176 3.0
e 12 170 1.0
e 12 307 1.0
e 12 270 1.0
e 12 167 9.0
e 12 277 1.0
e 13 304 1.0
e 13 128 1.0
e 13 106 1.0
e 13 257 2.0
e 13 185 1.0
e 13 2 1.0
e 13 233 1.0
e 13 221 1.0
e 14 51 1.0
e 14 152 44.0
e 14 167 8.0
e 14 145 27.0
e 14 23 1.0
e 14 9 2.0
e 14 310 1.0
e 14 30 1.0
e 15 206 37.0
e 15 192 2.0
e 15 272 1.0
e 15 276 31.0
e 15 54 1.0
e 15 274 1.0
e 15 108 1.0
e 15 271 1.0
e 16 80 1.0
e 16 284 2.0
e 16 19 1.0
e 16 226 1.0
e 16 248 35.0
e 16 309 1.0
e 16 103 1.0
e 16 164 1.0
e 17 282 1.0
e 17 79 2.0
e 17 55 1.0
e 17 94 1.0
e 17 268 1.0
e 17 117 2.0
e 17 64 1.0
e 17 185 1.0
e 18 120 2.0
e 18 13 1.0
e 18 257 1.0
e 18 293 1.0
e 18 215 2.0
e 18 268 1.0
e 18 42 1.0
e 18 165 2.0
e 19 140 29.0
e 19 36 1.0
e 19 42 2.0
e 19 208 1.0
e 19 26 1.0
e 19 312 2.0
e 19 108 1.0
e 19 49 1.0
e 20 46 2.0
e 20 80 20.0
e 20 126 3.0
e 20 294 48.0
e 20 304 11.0
e 20 113 26.0
e 20 261 36.0
e 20 170 48.0
e 21 135 1.0
e 21 5 1.0
e 21 232 1.0
e 21 250 1.0
e 21 95 1.0
e 21 286 1.0
e 21 23 1.0
e 21 251 1.0
e 22 310 1.0
e 22 85 1.0
e 22 94 1.0
e 22 220 2.0
e 22 88 1.0
e 22 174 23.0
e 22 290 2.0
e 22 255 1.0
e 23 220 1.0
e 23 79 2.0
e 23 163 43.0
e 23 164 1.0
e 23 130 1.0
e 23 272 1.0
e 23 271 1.0
e 23 53 1.0
e 24 196 2.0
e 24 126 49.0
e 24 215 26.0
e 24 180 49.0
e 24 312 15.0
e 24 216 43.0
e 24 39 41.0
e 24 266 12.0
e 25 119 1.0
e 25 168 1.0
e 25 308 2.0
e 25 129 1.0
e 25 201 1.0
e 25 194 1.0
e 25 141 1.0
e 25 11 1.0
e 26 6 2.0
e 26 232 1.0
e 26 193 2.0
e 26 274 2.0
e 26 211 2.0
e 26 282 2.0
e 26 238 1.0
e 26 161 2.0
e 27 30 1.0
e 27 80 1.0
e 27 163 14.0
e 27 51 2.0
e 27 108 2.0
e 27 277 2.0
e 27 21 1.0
e 27 297 1.0
e 28 210 1.0
e 28 20 25.0
e 28 189 17.0
e 28 284 42.0
e 28 309 41.0
e 28 316 29.0
e 28 59 31.0
e 28 235 32.0
e 29 181 1.0
e 29 131 1.0
e 29 268 1.0
e 29 271 1.0
e 29 306 1.0
e 29 87 1.0
e 29 54 1.0
e 29 22 1.0
e 30 299 1.0
e 30 246 1.0
e 30 80 1.0
e 30 228 1.0
e 30 238 1.0
e 30 213 2.0
e 30 191 4.0
e 30 268 1.0
e 31 38 1.0
e 31 276 43.0
e 31 176 1.0
e 31 76 1.0
e 31 150 3.0
e 31 99 1.0
e 31 133 1.0
e 31 39 2.0
e 32 81 1.0
e 32 86 1.0
e 32 290 1.0
e 32 33 1.0
e 32 282 1.0
e 32 177 2.0
e 32 294 1.0
e 32 226 1.0
e 33 139 1.0
e 33 68 1.0
e 33 5 1.0
e 33 215 1.0
e 33 249 1.0
e 33 108 1.0
e 33 262 3.0
e 33 179 1.0
e 34 194 1.0
e 34 92 1.0
e 34 290 1.0
e 34 24 23.0
e 34 94 1.0
e 34 77 1.0
e 34 232 1.0
e 34 241 1.0
e 35 304 2.0
e 35 213 2.0
e 35 302 1.0
e 35 73 1.0
e 35 111 44.0
e 35 209 1.0
e 35 280 1.0
e 35 291 1.0
e 36 255 1.0
e 36 237 1.0
e 36 66 36.0
e 36 39 2.0
e 36 123 1.0
e 36 155 1.0
e 36 188 1.0
e 37 298 3.0
e 37 252 49.0
e 37 21 42.0
e 37 265 10.0
e 37 33 33.0
e 37 130 11.0
e 37 85 2.0
e 37 15 49.0
e 38 272 1.0
e 38 298 2.0
e 38 228 1.0
e 38 227 1.0
e 38 30 1.0
e 38 178 1.0
e 38 22 2.0
e 38 261 17.0
e 39 54 1.0
e 39 199 1.0
e 39 75 1.0
e 39 256 1.0
e 39 291 1.0
e 39 318 2.0
e 39 298 1.0
e 39 230 1.0
e 40 99 1.0
e 40 280 1.0
e 40 44 1.0
e 40 39 1.0
e 40 210 1.0
e 40 3 41.0
e 40 161 1.0
e 40 172 1.0
e 41 71 1.0
e 41 50 27.0
e 41 68 1.0
e 41 229 1.0
e 41 249 1.0
e 41 12 1.0
e 41 87 1.0
e 41 206 14.0
e 42 60 2.0
e 42 183 1.0
e 42 35 1.0
e 42 212 2.0
e 42 89 1.0
e 42 238 1.0
e 42 67 3.0
e 42 216 1.0
e 43 301 1.0
e 43 5 1.0
e 43 207 2.0
e 43 189 43.0
e 43 87 1.0
e 43 217 44.0
e 43 105 1.0
e 43 239 1.0
e 44 7 49.0
e 44 111 23.0
e 44 263 1.0
e 44 103 1.0
e 44 250 1.0
e 44 86 1.0
e 44 4 15.0
e 44 284 1.0
e 45 123 1.0
e 45 87 1.0
e 45 274 1.0
e 45 132 23.0
e 45 21 1.0
e 45 130 1.0
e 45 14 1.0
e 45 55 1.0
e 46 107 1.0
e 46 259 2.0
e 46 5 1.0
e 46 301 1.0
e 46 272 1.0
e 46 303 1.0
e 46 222 2.0
e 46 125 1.0
e 47 202 1.0
e 47 183 1.0
e 47 198 1.0
e 47 150 30.0
e 47 10 1.0
e 47 36 2.0
e 47 252 1.0
e 47 26 2.0
e 48 138 1.0
e 48 102 1.0
e 48 157 2.0
e 48 239 1.0
e 48 237 1.0
e 48 15 1.0
e 48 120 2.0
e 48 210 1.0
e 49 55 1.0
e 49 91 1.0
e 49 312 1.0
e 49 32 1.0
e 49 305 2.0
e 49 98 1.0
e 49 37 20.0
e 49 122 1.0
e 50 6 25.0
e 50 135 16.0
e 50 307 23.0
e 50 57 8.0
e 50 305 33.0
e 50 10 12.0
e 50 255 4.0
e 50 318 13.0
e 51 82 1.0
e 51 303 1.0
e 51 239 1.0
e 51 147 2.0
e 51 205 1.0
e 51 138 1.0
e 51 287 1.0
e 51 178 3.0
e 52 140 23.0
e 52 20 37.0
e 52 201 1.0
e 52 298 2.0
e 52 192 2.0
e 52 103 1.0
e 52 107 1.0
e 52 105 1.0
e 53 274 1.0
e 53 231 36.0
e 53 313 1.0
e 53 8 1.0
e 53 105 1.0
e 53 267 1.0
e 53 185 1.0
e 54 145 14.0
e 54 65 1.0
e 54 59 1.0
e 54 303 2.0
e 54 24 49.0
e 54 273 1.0
e 54 132 6.0
e 54 175 1.0
e 55 226 1.0
e 55 137 1.0
e 55 254 1.0
e 55 200 1.0
e 55 298 2.0
e 55 99 1.0
e 55 313 1.0
e 55 75 1.0
e 56 280 1.0
e 56 197 1.0
e 56 79 1.0
e 56 13 1.0
e 56 216 1.0
e 56 168 1.0
e 56 183 1.0
e 56 205 1.0
e 57 124 1.0
e 57 162 24.0
e 57 37 11.0
e 57 95 1.0
e 57 97 1.0
e 57 236 45.0
e 57 174 33.0
e 57 11 1.0
e 58 165 1.0
e 58 129 1.0
e 58 201 3.0
e 58 13 2.0
e 58 186 1.0
e 58 237 2.0
e 58 222 1.0
e 58 52 1.0
e 59 47 1.0
e 59 313 1.0
e 59 50 33.0
e 59 272 1.0
e 59 223 1.0
e 59 8 1.0
e 59 130 1.0
e 59 284 2.0
e 60 69 1.0
e 60 26 1.0
e 60 27 2.0
e 60 29 2.0
e 60 78 3.0
e 60 73 2.0
e 60 256 1.0
e 60 306 1.0
e 61 3 21.0
e 61 165 19.0
e 61 313 14.0
e 61 186 46.0
e 61 214 8.0
e 61 59 48.0
e 61 121 37.0
e 61 140 15.0
e 62 87 1.0
e 62 172 1.0
e 62 312 1.0
e 62 23 1.0
e 62 187 1.0
e 62 72 1.0
e 62 256 1.0
e 62 38 1.0
e 63 158 1.0
e 63 169 1.0
e 63 212 1.0
e 63 190 2.0
e 63 148 1.0
e 63 87 2.0
e 63 78 1.0
e 63 61 44.0
e 64 284 2.0
e 64 147 3.0
e 64 141 2.0
e 64 276 24.0
e 64 31 2.0
e 64 237 1.0
e 64 306 2.0
e 65 173 1.0
e 65 102 1.0
e 65 89 2.0
e 65 87 1.0
e 65 95 1.0
e 65 29 1.0
e 65 117 1.0
e 65 261 19.0
e 66 245 41.0
e 66 261 35.0
e 66 188 41.0
e 66 29 42.0
e 66 156 17.0
e 66 194 46.0
e 66 140 24.0
e 66 0 41.0
e 67 19 2.0
e 67 295 1.0
e 67 195 1.0
e 67 187 1.0
e 67 94 1.0
e 67 84 26.0
e 67 132 31.0
e 67 281 1.0
e 68 74 32.0
e 68 237 1.0
e 68 155 1.0
e 68 61 35.0
e 68 236 30.0
e 68 9 1.0
e 68 174 15.0
e 68 192 2.0
e 69 32 1.0
e 69 278 42.0
e 69 94 1.0
e 69 284 2.0
e 69 190 2.0
e 69 183 1.0
e 69 67 1.0
e 70 316 1.0
e 70 202 1.0
e 70 237 1.0
e 70 153 1.0
e 70 137 1.0
e 70 53 1.0
e 70 248 1.0
e 70 292 26.0
e 71 216 1.0
e 71 31 1.0
e 71 213 1.0
e 71 241 1.0
e 71 248 25.0
e 71 180 1.0
e 71 124 1.0
e 71 191 31.0
e 72 100 1.0
e 72 87 1.0
e 72 36 2.0
e 72 8 1.0
e 72 123 1.0
e 72 26 1.0
e 72 157 1.0
e 72 139 1.0
e 73 248 4.0
e 73 294 1.0
e 73 318 1.0
e 73 312 1.0
e 73 178 1.0
e 73 112 1.0
e 73 102 1.0
e 73 198 1.0
e 74 199 40.0
e 74 91 40.0
e 74 163 14.0
e 74 51 26.0
e 74 168 13.0
e 74 263 44.0
e 74 281 27.0
e 74 316 37.0
e 75 85 2.0
e 75 193 1.0
e 75 134 1.0
e 75 54 1.0
e 75 23 1.0
e 75 182 33.0
e 75 165 1.0
e 75 238 1.0
e 76 220 1.0
e 76 301 1.0
e 76 224 1.0
e 76 172 1.0
e 76 6 2.0
e 76 142 39.0
e 76 147 1.0
e 77 158 1.0
e 77 45 1.0
e 77 276 6.0
e 77 178 2.0
e 77 83 1.0
e 77 62 1.0
e 77 183 1.0
e 77 127 1.0
e 78 113 1.0
e 78 248 21.0
e 78 79 2.0
e 78 263 1.0
e 78 88 1.0
e 78 137 1.0
e 78 55 1.0
e 78 133 1.0
e 79 272 1.0
e 79 15 1.0
e 79 247 1.0
e 79 273 1.0
e 79 35 1.0
e 79 117 1.0
e 79 63 2.0
e 79 99 2.0
e 80 257 2.0
e 80 248 41.0
e 80 19 2.0
e 80 203 1.0
e 80 54 1.0
e 80 200 2.0
e 80 87 1.0
e 80 227 1.0
e 81 251 1.0
e 81 299 1.0
e 81 93 1.0
e 81 234 1.0
e 81 35 1.0
e 81 122 1.0
e 81 310 1.0
e 81 198 1.0
e 82 120 1.0
e 82 183 1.0
e 82 221 1.0
e 82 143 1.0
e 82 242 1.0
e 82 86 1.0
e 82 18 1.0
e 82 224 1.0
e 83 255 1.0
e 83 44 1.0
e 83 214 2.0
e 83 293 2.0
e 83 63 1.0
e 83 74 38.0
e 83 80 1.0
e 83 240 1.0
e 84 180 13.0
e 84 175 30.0
e 84 74 24.0
e 84 66 24.0
e 84 245 10.0
e 84 296 26.0
e 84 104 10.0
e 84 223 6.0
e 85 127 1.0
e 85 95 2.0
e 85 241 1.0
e 85 64 1.0
e 85 232 2.0
e 85 207 2.0
e 85 314 1.0
e 85 160 1.0
e 86 94 1.0
e 86 214 1.0
e 86 235 29.0
e 86 43 1.0
e 86 10 1.0
e 86 140 38.0
e 86 300 1.0
e 86 27 1.0
e 87 227 2.0
e 87 233 1.0
e 87 214 1.0
e 87 196 1.0
e 87 261 49.0
e 87 58 1.0
e 87 200 1.0
e 87 162 6.0
e 88 86 1.0
e 88 278 42.0
e 88 76 1.0
e 88 131 1.0
e 88 247 1.0
e 88 286 1.0
e 88 182 29.0
e 88 80 1.0
e 89 167 34.0
e 89 14 1.0
e 89 281 1.0
e 89 288 1.0
e 89 190 1.0
e 89 268 1.0
e 89 279 1.0
e 89 160 2.0
e 90 13 1.0
e 90 6 1.0
e 90 133 1.0
e 90 190 1.0
e 90 315 1.0
e 90 241 1.0
e 90 12 1.0
e 90 82 1.0
e 91 200 1.0
e 91 253 1.0
e 91 143 1.0
e 91 111 24.0
e 91 21 1.0
e 91 59 1.0
e 91 63 2.0
e 91 171 1.0
e 92 120 2.0
e 92 111 34.0
e 92 287 1.0
e 92 136 1.0
e 92 155 1.0
e 92 207 1.0
e 92 245 1.0
e 92 180 1.0
e 93 263 1.0
e 93 12 1.0
e 93 301 1.0
e 93 77 1.0
e 93 314 1.0
e 93 27 1.0
e 93 208 1.0
e 93 43 1.0
e 94 250 1.0
e 94 91 1.0
e 94 308 1.0
e 94 20 7.0
e 94 93 1.0
e 94 192 2.0
e 94 276 27.0
e 95 167 5.0
e 95 199 1.0
e 95 84 46.0
e 95 187 1.0
e 95 9 1.0
e 95 128 1.0
e 95 287 1.0
e 95 47 1.0
e 96 82 1.0
e 96 23 1.0
e 96 119 1.0
e 96 62 1.0
e 96 198 1.0
e 96 257 1.0
e 96 100 1.0
e 96 87 1.0
e 97 252 1.0
e 97 171 1.0
e 97 196 1.0
e 97 254 1.0
e 97 112 1.0
e 97 308 1.0
e 97 314 1.0
e 97 191 13.0
e 98 166 1.0
e 98 171 1.0
e 98 178 2.0
e 98 187 1.0
e 98 220 1.0
e 98 18 1.0
e 98 198 1.0
e 98 308 1.0
e 99 238 1.0
e 99 36 1.0
e 99 182 42.0
e 99 44 1.0
e 99 154 1.0
e 99 128 1.0
e 99 9 1.0
e 99 191 22.0
e 100 268 1.0
e 100 101 1.0
e 100 235 40.0
e 100 194 1.0
e 100 256 3.0
e 100 290 1.0
e 100 147 1.0
e 100 142 49.0
e 101 164 1.0
e 101 41 1.0
e 101 137 2.0
e 101 80 2.0
e 101 316 1.0
e 101 64 1.0
e 101 266 1.0
e 101 239 1.0
e 102 113 1.0
e 102 10 1.0
e 102 78 1.0
e 102 144 1.0
e 102 219 1.0
e 102 98 1.0
e 102 285 1.0
e 102 313 1.0
e 103 53 1.0
e 103 269 1.0
e 103 13 1.0
e 103 181 1.0
e 103 45 1.0
e 103 151 1.0
e 103 260 1.0
e 104 70 42.0
e 104 272 9.0
e 104 172 13.0
e 104 243 49.0
e 104 252 22.0
e 104 34 27.0
e 104 168 18.0
e 104 187 40.0
e 105 147 1.0
e 105 150 20.0
e 105 173 2.0
e 105 260 1.0
e 105 149 1.0
e 105 217 6.0
e 105 306 1.0
e 105 293 2.0
e 106 21 1.0
e 106 275 2.0
e 106 140 29.0
e 106 301 1.0
e 106 102 1.0
e 106 309 1.0
e 106 182 5.0
e 107 269 1.0
e 107 298 2.0
e 107 91 1.0
e 107 6 1.0
e 107 76 1.0
e 107 163 43.0
e 107 158 1.0
e 107 29 1.0
e 108 146 1.0
e 108 134 1.0
e 108 60 1.0
e 108 290 1.0
e 108 20 16.0
e 108 268 1.0
e 108 51 1.0
e 108 275 1.0
e 109 127 1.0
e 109 211 1.0
e 109 65 1.0
e 109 178 1.0
e 109 108 1.0
e 109 123 1.0
e 109 261 19.0
e 109 129 1.0
e 110 144 3.0
e 110 28 48.0
e 110 295 2.0
e 110 197 2.0
e 110 166 1.0
e 110 56 1.0
e 110 129 2.0
e 110 209 2.0
e 111 143 45.0
e 111 219 43.0
e 111 126 29.0
e 111 184 22.0
e 111 316 15.0
e 111 216 13.0
e 111 226 23.0
e 111 127 23.0
e 112 233 1.0
e 112 79 1.0
e 112 76 2.0
e 112 168 1.0
e 112 293 2.0
e 112 35 1.0
e 112 80 1.0
e 112 226 1.0
e 113 73 1.0
e 113 114 1.0
e 113 157 2.0
e 113 168 1.0
e 113 2 1.0
e 113 235 6.0
e 113 142 4.0
e 114 78 2.0
e 114 227 2.0
e 114 293 1.0
e 114 58 2.0
e 114 76 1.0
e 114 306 2.0
e 114 175 2.0
e 114 130 2.0
e 115 69 1.0
e 115 6 2.0
e 115 166 1.0
e 115 183 1.0
e 115 255 3.0
e 115 206 41.0
e 115 164 1.0
e 116 104 27.0
e 116 212 18.0
e 116 269 15.0
e 116 23 5.0
e 116 153 15.0
e 116 154 49.0
e 116 181 48.0
e 116 105 1.0
e 117 7 4.0
e 117 74 8.0
e 117 154 1.0
e 117 150 5.0
e 117 42 2.0
e 117 169 1.0
e 117 237 1.0
e 117 69 1.0
e 118 139 1.0
e 118 237 1.0
e 118 43 1.0
e 118 301 2.0
e 118 262 1.0
e 118 2 1.0
e 118 127 2.0
e 118 8 1.0
e 119 305 1.0
e 119 112 1.0
e 119 164 1.0
e 119 270 1.0
e 119 172 1.0
e 119 147 2.0
e 119 87 1.0
e 119 129 1.0
e 120 300 1.0
e 120 21 1.0
e 120 44 1.0
e 120 157 1.0
e 120 98 2.0
e 120 196 2.0
e 120 226 1.0
e 120 278 34.0
e 121 206 1.0
e 121 261 46.0
e 121 198 1.0
e 121 107 1.0
e 121 179 1.0
e 121 235 7.0
e 121 114 1.0
e 121 111 29.0
e 122 183 1.0
e 122 173 1.0
e 122 252 1.0
e 122 143 1.0
e 122 72 1.0
e 122 61 9.0
e 122 283 48.0
e 122 262 1.0
e 123 91 1.0
e 123 79 2.0
e 123 235 32.0
e 123 197 1.0
e 123 111 40.0
e 123 37 40.0
e 123 296 6.0
e 123 200 1.0
e 124 72 1.0
e 124 25 1.0
e 124 34 1.0
e 124 263 1.0
e 124 171 1.0
e 124 277 1.0
e 124 142 6.0
e 124 58 1.0
e 125 60 2.0
e 125 121 1.0
e 125 178 2.0
e 125 116 8.0
e 125 154 1.0
e 125 122 1.0
e 125 20 31.0
e 125 15 1.0
e 126 143 1.0
e 126 70 1.0
e 126 296 24.0
e 126 270 1.0
e 126 3 15.0
e 126 309 1.0
e 126 86 1.0
e 126 229 1.0
e 127 284 1.0
e 127 187 1.0
e 127 157 1.0
e 127 194 1.0
e 127 262 1.0
e 127 2 1.0
e 127 102 1.0
e 127 265 1.0
e 128 85 2.0
e 128 311 1.0
e 128 225 1.0
e 128 42 1.0
e 128 305 1.0
e 128 40 1.0
e 128 121 1.0
e 128 193 2.0
e 129 126 1.0
e 129 46 2.0
e 129 170 2.0
e 129 111 15.0
e 129 9 2.0
e 129 122 1.0
e 129 115 1.0
e 129 255 1.0
e 130 226 1.0
e 130 288 2.0
e 130 3 28.0
e 130 57 1.0
e 130 15 1.0
e 130 38 1.0
e 130 208 1.0
e 130 46 1.0
e 131 112 1.0
e 131 233 1.0
e 131 5 1.0
e 131 50 37.0
e 131 109 1.0
e 131 13 1.0
e 131 297 1.0
e 131 8 1.0
e 132 197 39.0
e 132 205 33.0
e 132 42 13.0
e 132 288 28.0
e 132 310 25.0
e 132 108 17.0
e 132 105 44.0
e 132 92 11.0
e 133 162 29.0
e 133 187 1.0
e 133 275 2.0
e 133 20 27.0
e 133 68 1.0
e 133 48 1.0
e 133 182 15.0
e 133 11 1.0
e 134 290 1.0
e 134 266 1.0
e 134 47 1.0
e 134 231 17.0
e 134 258 1.0
e 134 276 30.0
e 134 178 2.0
e 134 192 1.0
e 135 125 1.0
e 135 305 1.0
e 135 130 1.0
e 135 279 1.0
e 135 161 1.0
e 135 31 1.0
e 135 144 1.0
e 135 143 1.0
e 136 110 2.0
e 136 165 1.0
e 136 126 1.0
e 136 158 1.0
e 136 157 2.0
e 136 202 1.0
e 136 216 1.0
e 136 297 1.0
e 137 259 1.0
e 137 237 1.0
e 137 100 1.0
e 137 183 1.0
e 137 84 18.0
e 137 140 29.0
e 137 147 2.0
e 137 206 25.0
e 138 55 1.0
e 138 310 1.0
e 138 188 1.0
e 138 292 12.0
e 138 223 1.0
e 138 34 1.0
e 138 313 1.0
e 138 307 1.0
e 139 294 1.0
e 139 163 16.0
e 139 244 1.0
e 139 202 1.0
e 139 5 1.0
e 139 124 1.0
e 139 2 1.0
e 139 169 1.0
e 140 175 36.0
e 140 225 36.0
e 140 310 24.0
e 140 304 39.0
e 140 222 29.0
e 140 255 3.0
e 140 44 10.0
e 140 6 23.0
e 141 290 1.0
e 141 279 1.0
e 141 302 1.0
e 141 136 1.0
e 141 280 1.0
e 141 4 30.0
e 141 7 33.0
e 141 156 1.0
e 142 285 6.0
e 142 224 14.0
e 142 75 47.0
e 142 307 1.0
e 142 208 24.0
e 142 86 12.0
e 142 169 29.0
e 142 53 42.0
e 143 72 1.0
e 143 202 2.0
e 143 305 1.0
e 143 249 1.0
e 143 278 21.0
e 143 106 1.0
e 143 131 1.0
e 144 295 1.0
e 144 235 3.0
e 144 253 1.0
e 144 84 27.0
e 144 233 1.0
e 144 212 1.0
e 144 53 1.0
e 144 255 1.0
e 145 2 19.0
e 145 66 13.0
e 145 45 28.0
e 145 307 42.0
e 145 118 45.0
e 145 202 27.0
e 145 23 28.0
e 145 24 1.0
e 146 132 45.0
e 146 142 2.0
e 146 240 1.0
e 146 34 1.0
e 146 6 1.0
e 146 215 1.0
e 146 80 1.0
e 147 97 2.0
e 147 163 44.0
e 147 194 1.0
e 147 220 1.0
e 147 155 1.0
e 147 103 2.0
e 147 264 1.0
e 147 291 1.0
e 148 154 1.0
e 148 253 1.0
e 148 106 1.0
e 148 218 1.0
e 148 302 1.0
e 148 280 1.0
e 148 236 34.0
e 148 258 1.0
e 149 110 1.0
e 149 209 1.0
e 149 240 1.0
e 149 292 22.0
e 149 91 1.0
e 149 88 1.0
e 149 311 1.0
e 149 297 1.0
e 150 138 36.0
e 150 8 24.0
e 150 200 18.0
e 150 146 16.0
e 150 195 11.0
e 150 283 46.0
e 150 234 3.0
e 150 260 47.0
e 151 203 1.0
e 151 55 2.0
e 151 215 1.0
e 151 161 2.0
e 151 176 1.0
e 151 44 1.0
e 151 268 1.0
e 151 24 41.0
e 152 199 44.0
e 152 5 27.0
e 152 317 49.0
e 152 229 37.0
e 152 242 11.0
e 152 281 12.0
e 152 142 21.0
e 152 135 10.0
e 153 280 2.0
e 153 199 2.0
e 153 157 1.0
e 153 27 2.0
e 153 75 1.0
e 153 105 1.0
e 153 271 1.0
e 153 255 1.0
e 154 220 1.0
e 154 295 1.0
e 154 291 1.0
e 154 222 1.0
e 154 22 1.0
e 154 240 1.0
e 154 221 1.0
e 154 151 1.0
e 155 251 1.0
e 155 233 1.0
e 155 84 45.0
e 155 80 1.0
e 155 17 2.0
e 155 229 1.0
e 155 162 11.0
e 155 258 1.0
e 156 121 1.0
e 156 166 1.0
e 156 85 2.0
e 156 97 1.0
e 156 111 40.0
e 156 209 1.0
e 156 220 1.0
e 156 96 1.0
e 157 151 1.0
e 157 128 3.0
e 157 107 1.0
e 157 208 1.0
e 157 6 1.0
e 157 187 1.0
e 157 46 1.0
e 158 133 1.0
e 158 308 2.0
e 158 146 1.0
e 158 209 1.0
e 158 80 1.0
e 158 231 1.0
e 158 21 1.0
e 159 41 1.0
e 159 152 30.0
e 159 125 2.0
e 159 251 1.0
e 159 26 1.0
e 159 317 1.0
e 159 267 1.0
e 159 133 2.0
e 160 209 1.0
e 160 167 1.0
e 160 175 1.0
e 160 79 1.0
e 160 97 1.0
e 160 48 1.0
e 160 66 15.0
e 161 18 1.0
e 161 247 1.0
e 161 184 2.0
e 161 109 3.0
e 161 302 1.0
e 161 235 9.0
e 161 227 2.0
e 161 280 2.0
e 162 206 13.0
e 162 77 32.0
e 162 21 34.0
e 162 291 36.0
e 162 131 38.0
e 162 218 6.0
e 162 65 28.0
e 162 69 21.0
e 163 119 22.0
e 163 117 29.0
e 163 198 13.0
e 163 255 2.0
e 163 148 13.0
e 163 164 21.0
e 163 317 23.0
e 163 192 26.0
e 164 217 27.0
e 164 168 1.0
e 164 18 1.0
e 164 57 1.0
e 164 186 1.0
e 164 14 1.0
e 164 211 1.0
e 164 124 1.0
e 165 69 3.0
e 165 129 2.0
e 165 200 1.0
e 165 76 2.0
e 165 6 2.0
e 165 232 2.0
e 165 204 1.0
e 165 16 1.0
e 166 125 1.0
e 166 34 1.0
e 166 193 1.0
e 166 303 2.0
e 166 29 1.0
e 166 180 1.0
e 166 36 2.0
e 166 207 2.0
e 167 70 13.0
e 167 119 33.0
e 167 314 29.0
e 167 105 13.0
e 167 272 4.0
e 167 208 32.0
e 167 163 23.0
e 167 2 17.0
e 168 30 1.0
e 168 288 1.0
e 168 114 2.0
e 168 50 27.0
e 168 243 1.0
e 168 137 1.0
e 168 14 1.0
e 168 92 1.0
e 169 34 1.0
e 169 196 1.0
e 169 233 1.0
e 169 153 1.0
e 169 259 1.0
e 169 85 1.0
e 169 168 1.0
e 169 127 1.0
e 170 2 1.0
e 170 25 1.0
e 170 60 1.0
e 170 196 2.0
e 170 33 2.0
e 170 309 3.0
e 170 291 1.0
e 170 40 1.0
e 171 47 1.0
e 171 272 1.0
e 171 32 1.0
e 171 196 1.0
e 171 30 1.0
e 171 227 2.0
e 171 10 1.0
e 171 168 1.0
e 172 179 2.0
e 172 193 1.0
e 172 21 1.0
e 172 130 1.0
e 172 302 1.0
e 172 202 2.0
e 172 11 1.0
e 172 169 1.0
e 173 278 46.0
e 173 72 1.0
e 173 242 1.0
e 173 159 1.0
e 173 277 2.0
e 173 157 3.0
e 173 257 2.0
e 173 287 2.0
e 174 310 32.0
e 174 160 16.0
e 174 51 48.0
e 174 201 29.0
e 174 97 37.0
e 174 276 23.0
e 174 158 1.0
e 174 285 12.0
e 175 115 2.0
e 175 39 2.0
e 175 97 1.0
e 175 268 1.0
e 175 67 1.0
e 175 59 1.0
e 175 308 1.0
e 175 73 1.0
e 176 135 1.0
e 176 171 1.0
e 176 36 1.0
e 176 124 1.0
e 176 70 2.0
e 176 297 1.0
e 176 56 1.0
e 176 293 1.0
e 177 92 1.0
e 177 108 2.0
e 177 110 2.0
e 177 310 2.0
e 177 203 1.0
e 177 168 1.0
e 177 210 1.0
e 177 44 1.0
e 178 316 2.0
e 178 32 2.0
e 178 26 2.0
e 178 41 1.0
e 178 296 10.0
e 178 68 1.0
e 178 83 2.0
e 178 227 1.0
e 179 162 22.0
e 179 248 13.0
e 179 288 1.0
e 179 70 1.0
e 179 108 1.0
e 179 178 2.0
e 179 224 1.0
e 179 212 1.0
e 180 246 2.0
e 180 142 37.0
e 180 57 1.0
e 180 212 1.0
e 180 277 1.0
e 180 76 2.0
e 180 242 1.0
e 180 96 1.0
e 181 186 1.0
e 181 216 1.0
e 181 206 24.0
e 181 62 1.0
e 181 228 1.0
e 181 36 1.0
e 181 167 22.0
e 181 117 1.0
e 182 37 29.0
e 182 304 24.0
e 182 273 42.0
e 182 149 18.0
e 182 12 39.0
e 182 28 2.0
e 182 221 29.0
e 183 167 48.0
e 183 254 1.0
e 183 39 1.0
e 183 87 1.0
e 183 86 1.0
e 183 285 1.0
e 183 19 2.0
e 183 144 1.0
e 184 315 1.0
e 184 27 2.0
e 184 13 1.0
e 184 143 1.0
e 184 24 46.0
e 184 297 1.0
e 184 139 1.0
e 184 168 1.0
e 185 186 1.0
e 185 213 1.0
e 185 26 1.0
e 185 117 1.0
e 185 292 30.0
e 185 188 1.0
e 185 155 1.0
e 185 236 26.0
e 186 169 1.0
e 186 230 1.0
e 186 203 1.0
e 186 83 1.0
e 186 127 1.0
e 186 188 1.0
e 186 294 1.0
e 186 34 1.0
e 187 107 1.0
e 187 144 1.0
e 187 172 1.0
e 187 37 46.0
e 187 197 1.0
e 187 224 1.0
e 187 292 17.0
e 187 296 38.0
e 188 215 2.0
e 188 299 1.0
e 188 243 1.0
e 188 191 7.0
e 188 301 1.0
e 188 200 1.0
e 188 272 1.0
e 188 174 35.0
e 189 299 15.0
e 189 272 14.0
e 189 251 44.0
e 189 17 43.0
e 189 285 40.0
e 189 140 3.0
e 189 139 24.0
e 189 169 28.0
e 190 115 1.0
e 190 184 1.0
e 190 275 1.0
e 190 58 1.0
e 190 91 1.0
e 190 9 1.0
e 190 163 5.0
e 190 212 1.0
e 191 94 37.0
e 191 204 22.0
e 191 65 32.0
e 191 209 4.0
e 191 290 31.0
e 191 278 37.0
e 191 50 37.0
e 191 29 17.0
e 192 114 3.0
e 192 70 1.0
e 192 47 2.0
e 192 199 1.0
e 192 208 2.0
e 192 80 1.0
e 192 93 2.0
e 193 318 1.0
e 193 233 1.0
e 193 311 1.0
e 193 157 1.0
e 193 298 2.0
e 193 32 2.0
e 193 30 1.0
e 193 66 16.0
e 194 258 1.0
e 194 36 1.0
e 194 82 1.0
e 194 92 1.0
e 194 206 35.0
e 194 61 35.0
e 194 229 1.0
e 195 249 1.0
e 195 216 1.0
e 195 76 2.0
e 195 129 1.0
e 195 206 10.0
e 195 285 1.0
e 195 27 1.0
e 195 179 1.0
e 196 93 1.0
e 196 23 1.0
e 196 162 30.0
e 196 304 1.0
e 196 156 1.0
e 196 121 1.0
e 196 22 1.0
e 197 66 8.0
e 197 282 1.0
e 197 240 1.0
e 197 44 1.0
e 197 309 1.0
e 197 112 1.0
e 197 28 5.0
e 197 49 1.0
e 198 100 1.0
e 198 184 1.0
e 198 208 1.0
e 198 206 45.0
e 198 36 2.0
e 198 77 1.0
e 198 151 2.0
e 199 300 2.0
e 199 297 1.0
e 199 133 1.0
e 199 283 14.0
e 199 306 1.0
e 199 58 1.0
e 199 259 1.0
e 199 73 1.0
e 200 203 1.0
e 200 13 2.0
e 200 47 2.0
e 200 148 1.0
e 200 156 2.0
e 200 41 1.0
e 200 242 2.0
e 200 318 1.0
e 201 16 1.0
e 201 284 1.0
e 201 44 1.0
e 201 311 1.0
e 201 139 1.0
e 201 117 1.0
e 201 307 1.0
e 201 296 46.0
e 202 117 1.0
e 202 32 2.0
e 202 310 2.0
e 202 298 2.0
e 202 12 2.0
e 202 314 1.0
e 202 301 2.0
e 202 256 1.0
e 203 179 1.0
e 203 37 1.0
e 203 310 1.0
e 203 4 3.0
e 203 77 1.0
e 203 43 1.0
e 203 76 1.0
e 204 52 1.0
e 204 30 1.0
e 204 48 1.0
e 204 85 1.0
e 204 134 1.0
e 204 24 37.0
e 204 43 1.0
e 204 100 1.0
e 205 62 1.0
e 205 171 1.0
e 205 153 2.0
e 205 11 1.0
e 205 84 32.0
e 205 53 1.0
e 206 113 44.0
e 206 196 12.0
e 206 53 41.0
e 206 58 40.0
e 206 109 45.0
e 206 268 46.0
e 206 223 17.0
e 206 111 48.0
e 207 225 1.0
e 207 165 1.0
e 207 318 1.0
e 207 12 1.0
e 207 215 1.0
e 207 199 1.0
e 207 118 2.0
e 207 76 1.0
e 208 195 1.0
e 208 196 1.0
e 208 174 30.0
e 208 251 1.0
e 208 283 40.0
e 208 107 1.0
e 208 217 1.0
e 208 143 1.0
e 209 288 1.0
e 209 142 16.0
e 209 229 1.0
e 209 201 1.0
e 209 219 1.0
e 209 63 1.0
e 209 315 1.0
e 210 24 20.0
e 210 114 1.0
e 210 227 1.0
e 210 58 1.0
e 210 138 1.0
e 210 160 1.0
e 210 180 1.0
e 210 305 1.0
e 211 74 5.0
e 211 69 1.0
e 211 232 1.0
e 211 49 1.0
e 211 29 1.0
e 211 221 1.0
e 211 35 1.0
e 212 71 1.0
e 212 281 2.0
e 212 131 1.0
e 212 40 3.0
e 212 143 1.0
e 212 98 1.0
e 212 255 2.0
e 212 284 1.0
e 213 84 16.0
e 213 13 2.0
e 213 18 1.0
e 213 83 2.0
e 213 305 1.0
e 213 285 2.0
e 213 281 1.0
e 213 32 1.0
e 214 148 1.0
e 214 57 2.0
e 214 43 1.0
e 214 69 2.0
e 214 288 2.0
e 214 35 2.0
e 214 13 1.0
e 215 218 1.0
e 215 275 1.0
e 215 147 1.0
e 215 203 1.0
e 215 134 1.0
e 215 237 1.0
e 215 141 1.0
e 215 172 1.0
e 216 89 1.0
e 216 68 1.0
e 216 123 1.0
e 216 312 1.0
e 216 3 15.0
e 216 124 1.0
e 216 66 4.0
e 216 268 1.0
e 217 15 15.0
e 217 191 14.0
e 217 243 49.0
e 217 143 20.0
e 217 60 49.0
e 217 283 8.0
e 217 0 47.0
e 217 116 48.0
e 218 253 2.0
e 218 43 2.0
e 218 53 1.0
e 218 187 1.0
e 218 69 2.0
e 218 298 3.0
e 218 125 2.0
e 218 284 1.0
e 219 229 1.0
e 219 250 1.0
e 219 0 1.0
e 219 12 1.0
e 219 130 1.0
e 219 180 1.0
e 219 69 1.0
e 219 234 1.0
e 220 162 49.0
e 220 302 1.0
e 220 161 1.0
e 220 32 1.0
e 220 66 34.0
e 220 137 1.0
e 220 122 1.0
e 221 114 1.0
e 221 178 2.0
e 221 241 1.0
e 221 80 1.0
e 221 59 1.0
e 221 102 1.0
e 221 118 1.0
e 221 237 1.0
e 222 271 1.0
e 222 274 1.0
e 222 311 1.0
e 222 110 2.0
e 222 191 35.0
e 222 29 1.0
e 222 152 10.0
e 222 3 26.0
e 223 304 1.0
e 223 118 2.0
e 223 19 2.0
e 223 266 1.0
e 223 97 1.0
e 223 123 1.0
e 223 112 1.0
e 223 9 2.0
e 224 153 1.0
e 224 126 1.0
e 224 167 47.0
e 224 281 1.0
e 224 294 1.0
e 224 47 1.0
e 224 178 2.0
e 224 111 44.0
e 225 188 1.0
e 225 111 49.0
e 225 316 1.0
e 225 51 1.0
e 225 108 1.0
e 225 269 1.0
e 225 135 1.0
e 225 230 1.0
e 226 267 1.0
e 226 191 4.0
e 226 144 1.0
e 226 25 1.0
e 226 292 16.0
e 226 196 1.0
e 226 36 3.0
e 226 222 1.0
e 227 6 2.0
e 227 22 1.0
e 227 72 1.0
e 227 62 2.0
e 227 56 1.0
e 227 196 2.0
e 227 237 1.0
e 227 295 2.0
e 228 161 2.0
e 228 101 1.0
e 228 230 1.0
e 228 195 1.0
e 228 28 14.0
e 228 288 2.0
e 228 150 9.0
e 228 134 1.0
e 229 276 26.0
e 229 44 1.0
e 229 185 1.0
e 229 274 1.0
e 229 148 1.0
e 229 285 1.0
e 229 33 1.0
e 229 23 1.0
e 230 204 1.0
e 230 97 1.0
e 230 181 1.0
e 230 171 1.0
e 230 141 1.0
e 230 290 1.0
e 230 27 1.0
e 230 130 1.0
e 231 306 39.0
e 231 101 20.0
e 231 271 42.0
e 231 267 6.0
e 231 26 20.0
e 231 80 47.0
e 231 47 32.0
e 231 125 14.0
e 232 72 1.0
e 232 221 1.0
e 232 268 1.0
e 232 178 1.0
e 232 61 19.0
e 232 289 1.0
e 232 314 1.0
e 232 198 1.0
e 233 28 48.0
e 233 205 1.0
e 233 267 1.0
e 233 238 1.0
e 233 290 1.0
e 233 64 1.0
e 233 111 6.0
e 233 43 1.0
e 234 141 1.0
e 234 135 1.0
e 234 270 1.0
e 234 31 1.0
e 234 297 1.0
e 234 153 2.0
e 234 140 10.0
e 234 48 1.0
e 235 185 3.0
e 235 149 33.0
e 235 260 48.0
e 235 1 8.0
e 235 108 33.0
e 235 79 38.0
e 235 258 34.0
e 235 285 16.0
e 236 123 12.0
e 236 219 42.0
e 236 73 39.0
e 236 16 46.0
e 236 314 4.0
e 236 167 9.0
e 236 129 32.0
e 236 97 18.0
e 237 43 1.0
e 237 6 1.0
e 237 220 1.0
e 237 127 1.0
e 237 162 22.0
e 237 145 40.0
e 237 202 1.0
e 237 241 1.0
e 238 16 1.0
e 238 139 1.0
e 238 272 1.0
e 238 204 1.0
e 238 65 1.0
e 238 45 1.0
e 238 6 1.0
e 238 293 1.0
e 239 41 1.0
e 239 95 1.0
e 239 313 1.0
e 239 181 1.0
e 239 286 2.0
e 239 305 1.0
e 239 58 1.0
e 239 5 1.0
e 240 74 48.0
e 240 75 1.0
e 240 13 1.0
e 240 11 1.0
e 240 33 1.0
e 240 135 1.0
e 240 126 1.0
e 240 185 1.0
e 241 218 2.0
e 241 20 38.0
e 241 130 1.0
e 241 263 1.0
e 241 135 1.0
e 241 217 23.0
e 241 126 1.0
e 242 27 1.0
e 242 307 1.0
e 242 281 1.0
e 242 13 1.0
e 242 182 13.0
e 242 221 1.0
e 242 298 2.0
e 242 54 1.0
e 243 69 1.0
e 243 263 1.0
e 243 233 1.0
e 243 55 1.0
e 243 271 1.0
e 243 274 1.0
e 243 118 2.0
e 243 282 1.0
e 244 266 1.0
e 244 156 1.0
e 244 100 1.0
e 244 211 1.0
e 244 126 1.0
e 244 13 1.0
e 244 295 2.0
e 244 287 1.0
e 245 61 14.0
e 245 258 1.0
e 245 219 1.0
e 245 202 1.0
e 245 169 1.0
e 245 241 1.0
e 245 58 1.0
e 245 78 1.0
e 246 198 1.0
e 246 105 1.0
e 246 216 1.0
e 246 29 2.0
e 246 193 1.0
e 246 314 2.0
e 246 13 1.0
e 247 140 35.0
e 247 220 1.0
e 247 296 13.0
e 247 85 2.0
e 247 9 1.0
e 247 12 1.0
e 247 198 1.0
e 247 33 1.0
e 248 217 17.0
e 248 291 45.0
e 248 111 45.0
e 248 177 6.0
e 248 246 15.0
e 248 286 44.0
e 248 260 39.0
e 248 23 20.0
e 249 148 1.0
e 249 156 1.0
e 249 108 1.0
e 249 314 1.0
e 249 294 1.0
e 249 106 1.0
e 249 126 1.0
e 249 166 1.0
e 250 243 1.0
e 250 207 2.0
e 250 13 1.0
e 250 187 1.0
e 250 89 1.0
e 250 43 1.0
e 250 80 1.0
e 250 76 1.0
e 251 84 12.0
e 251 315 1.0
e 251 141 1.0
e 251 15 1.0
e 251 89 1.0
e 251 79 1.0
e 252 150 21.0
e 252 63 1.0
e 252 148 1.0
e 252 73 1.0
e 252 6 1.0
e 252 4 47.0
e 252 133 1.0
e 252 34 1.0
e 253 233 1.0
e 253 172 1.0
e 253 133 1.0
e 253 165 2.0
e 253 128 1.0
e 253 272 1.0
e 253 123 1.0
e 253 30 1.0
e 254 87 1.0
e 254 10 1.0
e 254 151 2.0
e 254 185 1.0
e 254 109 1.0
e 254 249 1.0
e 254 38 1.0
e 254 103 1.0
e 255 277 1.0
e 255 81 1.0
e 255 307 1.0
e 255 110 1.0
e 255 158 1.0
e 255 179 1.0
e 255 66 22.0
e 255 32 1.0
e 256 196 1.0
e 256 162 18.0
e 256 264 1.0
e 256 149 1.0
e 256 260 2.0
e 256 53 1.0
e 256 55 1.0
e 256 155 2.0
e 257 9 1.0
e 257 98 2.0
e 257 287 1.0
e 257 104 14.0
e 257 123 2.0
e 257 215 1.0
e 257 44 1.0
e 257 81 1.0
e 258 57 1.0
e 258 108 1.0
e 258 4 43.0
e 258 110 1.0
e 258 269 1.0
e 258 166 1.0
e 258 228 1.0
e 259 107 1.0
e 259 216 1.0
e 259 143 1.0
e 259 183 1.0
e 259 275 1.0
e 259 269 1.0
e 259 57 1.0
e 259 171 1.0
e 260 55 1.0
e 260 72 1.0
e 260 302 1.0
e 260 275 2.0
e 260 208 1.0
e 260 78 2.0
e 260 318 1.0
e 260 295 1.0
e 261 3 22.0
e 261 21 30.0
e 261 141 3.0
e 261 299 11.0
e 261 24 45.0
e 261 318 36.0
e 261 219 7.0
e 261 176 46.0
e 262 32 2.0
e 262 9 1.0
e 262 182 40.0
e 262 97 3.0
e 262 10 2.0
e 262 203 2.0
e 262 243 1.0
e 262 245 1.0
e 263 24 1.0
e 263 169 1.0
e 263 253 1.0
e 263 301 1.0
e 263 193 1.0
e 263 293 1.0
e 263 6 1.0
e 263 176 2.0
e 264 7 19.0
e 264 76 1.0
e 264 108 1.0
e 264 45 1.0
e 264 292 17.0
e 264 184 1.0
e 264 130 1.0
e 265 66 33.0
e 265 233 1.0
e 265 107 1.0
e 265 36 1.0
e 265 119 1.0
e 265 23 1.0
e 265 163 17.0
e 266 75 1.0
e 266 184 1.0
e 266 104 40.0
e 266 151 1.0
e 266 128 1.0
e 266 186 1.0
e 266 143 1.0
e 266 224 1.0
e 267 261 2.0
e 267 170 3.0
e 267 107 1.0
e 267 209 1.0
e 267 40 3.0
e 267 241 1.0
e 267 205 1.0
e 268 26 1.0
e 268 202 3.0
e 268 177 1.0
e 268 28 11.0
e 268 9 1.0
e 268 142 16.0
e 268 130 1.0
e 268 210 1.0
e 269 197 1.0
e 269 303 2.0
e 269 312 1.0
e 269 180 1.0
e 269 187 1.0
e 269 134 1.0
e 269 140 31.0
e 269 88 1.0
e 270 308 3.0
e 270 50 30.0
e 270 279 1.0
e 270 31 1.0
e 270 42 2.0
e 270 73 1.0
e 270 272 1.0
e 270 20 3.0
e 271 287 1.0
e 271 167 27.0
e 271 27 1.0
e 271 117 1.0
e 271 186 1.0
e 271 94 1.0
e 271 2 1.0
e 271 100 1.0
e 272 56 1.0
e 272 235 36.0
e 272 249 1.0
e 272 66 1.0
e 272 93 1.0
e 272 298 1.0
e 272 148 1.0
e 273 28 14.0
e 273 181 1.0
e 273 311 1.0
e 273 186 1.0
e 273 106 1.0
e 273 272 1.0
e 273 132 23.0
e 273 13 1.0
e 274 219 1.0
e 274 132 12.0
e 274 145 11.0
e 274 38 1.0
e 274 48 1.0
e 274 174 22.0
e 274 153 1.0
e 275 181 2.0
e 275 214 1.0
e 275 122 3.0
e 275 53 2.0
e 275 261 9.0
e 275 294 1.0
e 275 287 2.0
e 275 27 2.0
e 276 240 48.0
e 276 211 13.0
e 276 186 14.0
e 276 208 18.0
e 276 138 6.0
e 276 287 28.0
e 276 252 37.0
e 276 314 46.0
e 277 127 1.0
e 277 33 3.0
e 277 86 1.0
e 277 141 1.0
e 277 67 1.0
e 277 36 1.0
e 277 264 1.0
e 277 52 1.0
e 278 53 21.0
e 278 3 47.0
e 278 132 44.0
e 278 38 13.0
e 278 127 37.0
e 278 121 38.0
e 278 229 34.0
e 278 313 36.0
e 279 16 1.0
e 279 98 1.0
e 279 246 1.0
e 279 50 9.0
e 279 118 1.0
e 279 106 1.0
e 279 93 1.0
e 279 294 1.0
e 280 138 1.0
e 280 113 2.0
e 280 216 1.0
e 280 155 2.0
e 280 269 2.0
e 280 302 2.0
e 280 84 46.0
e 280 59 1.0
e 281 232 1.0
e 281 216 1.0
e 281 299 1.0
e 281 140 13.0
e 281 197 1.0
e 281 19 1.0
e 281 88 1.0
e 281 126 1.0
e 282 53 1.0
e 282 119 1.0
e 282 40 1.0
e 282 205 1.0
e 282 211 1.0
e 282 57 1.0
e 282 165 1.0
e 282 291 1.0
e 283 144 12.0
e 283 124 28.0
e 283 242 38.0
e 283 92 21.0
e 283 71 31.0
e 283 127 26.0
e 283 232 18.0
e 283 221 22.0
e 284 187 1.0
e 284 9 1.0
e 284 101 1.0
e 284 43 1.0
e 284 307 2.0
e 284 268 1.0
e 284 312 1.0
e 285 94 1.0
e 285 302 2.0
e 285 109 1.0
e 285 131 1.0
e 285 13 1.0
e 285 4 44.0
e 285 130 1.0
e 286 228 1.0
e 286 149 1.0
e 286 1 1.0
e 286 318 1.0
e 286 279 2.0
e 286 65 2.0
e 286 203 1.0
e 286 153 1.0
e 287 147 1.0
e 287 88 1.0
e 287 292 6.0
e 287 108 1.0
e 287 281 1.0
e 287 268 1.0
e 287 177 2.0
e 287 164 1.0
e 288 313 2.0
e 288 13 2.0
e 288 126 1.0
e 288 128 1.0
e 288 255 1.0
e 288 33 1.0
e 288 5 1.0
e 288 301 1.0
e 289 221 2.0
e 289 93 1.0
e 289 161 1.0
e 289 197 1.0
e 289 66 48.0
e 289 68 1.0
e 289 245 2.0
e 289 274 1.0
e 290 101 2.0
e 290 31 1.0
e 290 219 1.0
e 290 210 1.0
e 290 150 13.0
e 290 276 16.0
e 290 44 1.0
e 290 20 48.0
e 291 90 1.0
e 291 49 1.0
e 291 112 1.0
e 291 38 1.0
e 291 293 2.0
e 291 215 3.0
e 291 305 1.0
e 291 125 1.0
e 292 107 14.0
e 292 303 8.0
e 292 314 11.0
e 292 74 45.0
e 292 30 30.0
e 292 154 7.0
e 292 126 12.0
e 293 97 2.0
e 293 109 1.0
e 293 160 2.0
e 293 28 23.0
e 293 312 2.0
e 293 11 2.0
e 293 175 1.0
e 293 155 2.0
e 294 150 33.0
e 294 70 1.0
e 294 180 1.0
e 294 182 19.0
e 294 217 7.0
e 294 46 1.0
e 294 99 1.0
e 294 208 1.0
e 295 270 2.0
e 295 113 1.0
e 295 127 1.0
e 295 261 42.0
e 295 265 1.0
e 295 170 2.0
e 295 14 1.0
e 295 85 1.0
e 296 157 8.0
e 296 66 22.0
e 296 227 36.0
e 296 241 36.0
e 296 160 22.0
e 296 90 11.0
e 297 59 1.0
e 297 19 1.0
e 297 122 1.0
e 297 153 2.0
e 297 88 1.0
e 297 185 1.0
e 297 266 1.0
e 298 143 1.0
e 298 93 1.0
e 298 303 1.0
e 298 243 1.0
e 298 124 1.0
e 298 44 3.0
e 298 226 1.0
e 299 82 1.0
e 299 216 1.0
e 299 204 1.0
e 299 72 1.0
e 299 232 1.0
e 299 258 1.0
e 299 23 1.0
e 299 268 1.0
e 300 6 1.0
e 300 136 1.0
e 300 29 1.0
e 300 104 45.0
e 300 277 1.0
e 300 171 1.0
e 300 39 2.0
e 300 100 1.0
e 301 69 1.0
e 301 87 1.0
e 301 314 1.0
e 301 252 1.0
e 301 299 1.0
e 301 56 1.0
e 301 192 2.0
e 301 219 1.0
e 302 123 1.0
e 302 211 1.0
e 302 293 1.0
e 302 244 1.0
e 302 60 1.0
e 302 40 3.0
e 302 145 41.0
e 302 62 1.0
e 303 255 1.0
e 303 185 2.0
e 303 52 1.0
e 303 148 1.0
e 303 94 2.0
e 303 317 1.0
e 303 218 1.0
e 303 242 1.0
e 304 48 1.0
e 304 163 38.0
e 304 14 1.0
e 304 46 1.0
e 304 311 1.0
e 304 298 2.0
e 304 230 1.0
e 304 294 1.0
e 305 196 1.0
e 305 217 27.0
e 305 262 1.0
e 305 94 1.0
e 305 140 14.0
e 305 295 1.0
e 305 144 1.0
e 305 131 1.0
e 306 206 12.0
e 306 301 1.0
e 306 24 48.0
e 306 93 1.0
e 306 203 1.0
e 306 226 1.0
e 306 101 2.0
e 307 288 2.0
e 307 126 1.0
e 307 149 1.0
e 307 281 1.0
e 307 89 2.0
e 307 253 1.0
e 307 218 1.0
e 307 87 1.0
e 308 266 2.0
e 308 5 1.0
e 308 233 1.0
e 308 90 1.0
e 308 281 2.0
e 308 13 1.0
e 308 37 9.0
e 308 186 1.0
e 309 20 42.0
e 309 222 1.0
e 309 203 1.0
e 309 125 1.0
e 309 169 1.0
e 309 164 1.0
e 309 25 1.0
e 310 163 4.0
e 310 244 1.0
e 310 236 41.0
e 310 218 2.0
e 310 286 1.0
e 310 166 1.0
e 310 117 1.0
e 310 152 34.0
e 311 315 1.0
e 311 232 1.0
e 311 302 1.0
e 311 44 1.0
e 311 76 1.0
e 311 160 3.0
e 311 257 1.0
e 311 66 42.0
e 312 116 32.0
e 312 155 1.0
e 312 64 2.0
e 312 179 1.0
e 312 127 1.0
e 312 183 1.0
e 312 257 2.0
e 312 92 1.0
e 313 93 1.0
e 313 200 1.0
e 313 109 1.0
e 313 41 1.0
e 313 280 2.0
e 313 242 1.0
e 313 141 1.0
e 314 142 34.0
e 314 108 1.0
e 314 146 1.0
e 314 216 1.0
e 314 91 1.0
e 315 291 1.0
e 315 280 1.0
e 315 117 1.0
e 315 264 1.0
e 315 44 1.0
e 315 151 1.0
e 315 204 1.0
e 315 149 1.0
e 316 171 1.0
e 316 286 3.0
e 316 115 1.0
e 316 272 1.0
e 316 224 1.0
e 316 106 1.0
e 316 84 13.0
e 317 199 1.0
e 317 153 1.0
e 317 11 1.0
e 317 186 1.0
e 317 145 5.0
e 317 224 1.0
e 317 68 1.0
e 317 122 1.0
e 318 221 1.0
e 318 282 1.0
e 318 256 2.0
e 318 70 1.0
e 318 164 1.0
e 318 104 27.0
e 318 125 1.0
e 318 67 1.0
e 319 103 1.0
e 319 255 1.0
e 319 287 1.0
e 319 294 2.0
e 319 79 1.0
e 319 253 1.0
e 319 292 13.0
e 319 273 3.0
